750
500
400
400
399
398
397
397
396
396
396
395
395
394
394
394
393
392
392
391
390
390
390
390
390
389
388
388
388
387
387
387
387
386
386
385
385
385
384
383
383
382
381
381
381
380
380
379
378
378
378
378
378
377
377
376
376
376
375
375
374
374
372
370
369
369
369
369
368
368
368
368
368
367
366
366
366
365
364
364
364
364
364
363
363
363
362
361
361
361
360
360
360
359
359
358
358
358
358
358
358
358
357
357
356
355
355
355
355
355
354
354
354
354
353
353
353
353
353
352
352
352
351
351
351
351
350
348
348
347
347
347
346
346
345
345
344
344
343
343
343
343
342
342
342
341
341
340
340
340
339
338
338
338
337
337
337
337
336
336
334
334
334
333
333
332
332
331
331
331
330
330
330
329
329
329
329
329
326
326
326
326
325
324
323
323
323
322
320
319
318
318
316
316
316
315
315
314
313
313
313
313
312
312
312
312
310
310
310
309
308
308
308
307
306
304
303
303
303
303
302
302
302
302
301
301
300
300
299
299
299
299
298
298
298
298
298
297
297
297
296
296
296
295
294
294
293
293
292
292
292
292
291
291
290
290
290
289
289
287
286
286
285
285
284
282
280
280
280
279
279
277
276
276
276
276
274
274
274
274
273
273
272
272
271
271
270
270
270
269
269
269
269
268
268
268
266
266
265
265
264
264
263
263
263
263
262
262
262
261
260
259
259
259
259
259
258
258
258
257
257
257
256
256
256
255
255
255
253
253
253
252
250
250
250
250
248
248
247
247
247
246
244
244
242
242
241
241
240
239
239
239
238
238
238
238
238
237
237
237
235
235
234
233
233
231
230
230
230
229
229
229
229
229
228
228
228
228
227
227
225
225
224
224
224
224
221
221
220
220
215
214
214
214
214
213
213
213
212
211
211
211
211
210
209
209
208
206
206
204
203
203
202
200
199
199
197
197
196
196
195
195
194
194
193
193
192
191
191
190
190
190
189
189
188
188
188
187
187
187
187
187
187
185
184
183
183
183
183
182
182
180
180
180
179
179
179
179
179
178
177
175
175
175
174
174
173
173
173
173
172
172
172
172
172
170
170
168
168
168
168
167
167
167
167
166
166
166
166
166
166
166
166
164
164
163
162
162
161
161
159
158
158
158
156
156
156
155
155
154
154
154
154
154
153
153
151
150
149
149
149
149
148
148
148
147
147
147
147
147
147
146
146
146
145
145
145
145
145
145
145
144
144
144
142
141
140
140
140
140
139
139
138
136
136
135
135
135
135
135
134
133
133
133
132
131
130
129
129
128
127
126
125
125
125
124
124
121
121
120
120
120
120
119
119
119
118
118
118
118
117
117
115
115
115
115
114
113
113
113
112
111
111
109
108
108
107
107
106
105
103
103
103
103
103
103
102
102
101
101
100
100
99
98
98
98
97
97
97
97
97
97
96
96
96
96
95
95
95
95
92
92
92
91
91
90
90
89
88
88
87
85
85
84
84
84
83
83
83
82
82
82
81
81
80
80
80
80
80
79
79
79
79
79
78
78
77
77
75
75
74
74
74
73
73
73
73
73
72
71
71
71
71
71
71
70
69
69
69
69
69
67
67
67
66
66
66
65
64
63
63
63
63
63
62
62
60
60
60
59
57
57
57
57
57
57
57
57
57
56
55
55
55
55
55
54
54
54
54
53
53
53
53
52
52
52
52
52
51
51
51
50
